10

 0 12 86 68  0  0  0  0  0  0
12  0  0  0 69  0  0  0  0  0
86  0  0  0  0 34 35  0  0  0
68  0  0  0  0  0  0 19  0  0
 0 69  0  0  0  0  0  0  0  0
 0  0 34  0  0  0  0  0  0  0
 0  0 35  0  0  0  0  0  2  0
 0  0  0 19  0  0  0  0  0 21
 0  0  0  0  0  0  2  0  0  0
 0  0  0  0  0  0  0 21  0  0

 0 84 81 10 40 39  5 83 10 78
84  0 39 67 62 38  3 16 43 47
81 39  0 53 12 50 98 94  4 16
10 67 53  0 43 90 84 60 50 43
40 62 12 43  0 86 18  1 28 14
39 38 50 90 86  0 58 92 90 62
 5  3 98 84 18 58  0 53 93 69
83 16 94 60  1 92 53  0 30 35
10 43  4 50 28 90 93 30  0 16
78 47 16 43 14 62 69 35 16  0